asp/input/in_60_30_7_1.lp
#const n = 60.
#const k = 30.
#const h = 7.
tile(1,7,29).
tile(2,8,17).
tile(3,28,22).
tile(4,30,3).
tile(5,28,30).
tile(6,4,27).
tile(7,10,10).
tile(8,2,6).
tile(9,28,10).
tile(10,1,13).
tile(11,23,9).
tile(12,26,18).
tile(13,1,18).
tile(14,28,6).
tile(15,7,21).
tile(16,24,5).
tile(17,30,10).
tile(18,26,26).
tile(19,19,17).
tile(20,13,1).
tile(21,26,25).
tile(22,7,18).
tile(23,21,12).
tile(24,15,11).
tile(25,7,7).
tile(26,10,16).
tile(27,18,5).
tile(28,17,25).
tile(29,21,19).
tile(30,26,11).
tile(31,9,5).
tile(32,7,4).
tile(33,8,10).
tile(34,29,23).
tile(35,30,6).
tile(36,11,18).
tile(37,19,15).
tile(38,28,21).
tile(39,12,15).
tile(40,18,9).
tile(41,26,10).
tile(42,17,8).
tile(43,28,26).
tile(44,1,10).
tile(45,2,1).
tile(46,4,26).
tile(47,19,14).
tile(48,25,17).
tile(49,22,16).
tile(50,18,15).
tile(51,16,20).
tile(52,23,12).
tile(53,16,24).
tile(54,28,8).
tile(55,16,27).
tile(56,4,19).
tile(57,13,17).
tile(58,13,6).
tile(59,4,16).
tile(60,10,13).
