instances/in_60_30_7_1.dzn
n = 60;
k = 30;
h = 7;
tiles = array2d(1..n, 1..2,
[ 7,29
, 8,17
, 28,22
, 30,3
, 28,30
, 4,27
, 10,10
, 2,6
, 28,10
, 1,13
, 23,9
, 26,18
, 1,18
, 28,6
, 7,21
, 24,5
, 30,10
, 26,26
, 19,17
, 13,1
, 26,25
, 7,18
, 21,12
, 15,11
, 7,7
, 10,16
, 18,5
, 17,25
, 21,19
, 26,11
, 9,5
, 7,4
, 8,10
, 29,23
, 30,6
, 11,18
, 19,15
, 28,21
, 12,15
, 18,9
, 26,10
, 17,8
, 28,26
, 1,10
, 2,1
, 4,26
, 19,14
, 25,17
, 22,16
, 18,15
, 16,20
, 23,12
, 16,24
, 28,8
, 16,27
, 4,19
, 13,17
, 13,6
, 4,16
, 10,13
]);